(set-logic ALL)
; benchmark generated from python API
(set-info :status unknown)
(declare-datatypes ((Proc 0)) (((bid_func) (close_func) (coinbase))))
 (declare-fun w_0 () Int)
(declare-fun closed_1 () Bool)
(declare-fun t_closed_0_0 () Bool)
(declare-fun current_bid_1 () Int)
(declare-fun current_bid_0 () Int)
(declare-fun winner_1 () Int)
(declare-fun winner_0 () Int)
(declare-fun seller_1 () Int)
(declare-fun t_seller_0_0 () Int)
(declare-fun min_bid_1 () Int)
(declare-fun t_min_bid_0_0 () Int)
(declare-fun deadline_1 () Int)
(declare-fun t_deadline_0_0 () Int)
(declare-fun aw_0_2 () Int)
(declare-fun aw_1_2 () Int)
(declare-fun aw_0_1 () Int)
(declare-fun aw_1_1 () Int)
(declare-fun aw_0_0 () Int)
(declare-fun aw_1_0 () Int)
(declare-fun w_1 () Int)
(declare-fun constructor_m_0 () Int)
(declare-fun constructor_d_0 () Int)
(declare-fun constructor_b_0 () Int)
(declare-fun xn_0 () Int)
(declare-fun xa_0 () Int)
(declare-fun block_num_1 () Int)
(assert
 (>= w_0 0))
(assert
 (let (($x1607 (= t_closed_0_0 closed_1)))
 (let (($x1606 (= current_bid_0 current_bid_1)))
 (let (($x1605 (= winner_0 winner_1)))
 (let (($x1604 (= t_seller_0_0 seller_1)))
 (let (($x1603 (= t_min_bid_0_0 min_bid_1)))
 (let (($x1602 (= t_deadline_0_0 deadline_1)))
 (let (($x1600 (= aw_1_2 aw_0_2)))
 (let (($x1599 (= aw_1_1 aw_0_1)))
 (let (($x1598 (= aw_1_0 aw_0_0)))
 (let (($x1597 (= w_1 w_0)))
 (let (($x1596 (<= t_seller_0_0 2)))
 (let (($x1595 (>= t_seller_0_0 1)))
 (let (($x1589 (= t_deadline_0_0 constructor_d_0)))
 (let (($x1588 (= t_seller_0_0 constructor_b_0)))
 (let (($x1593 (and $x1588 (and $x1589 (and (= t_min_bid_0_0 constructor_m_0) true)))))
 (let (($x1609 (and $x1593 true $x1595 $x1596 (and $x1597 (and $x1598 $x1599 $x1600) $x1602 $x1603 $x1604 $x1605 $x1606 $x1607))))
 (let (($x1587 (= xn_0 0)))
 (and (and (>= xa_0 0) (<= xa_0 2) (>= xn_0 0)) (and (>= aw_0_0 0) (>= aw_0_1 0) (>= aw_0_2 0)) (and $x1587 $x1609))))))))))))))))))))
(assert
 (let (($x1633 (exists ((xa_q Int) )(let (($x2277 (forall ((xn_q0 Int) (f_q0 Proc) (wq0 Int) (awq0_0 Int) (awq0_1 Int) (awq0_2 Int) (t_wq0_0 Int) (t_wq0_1 Int) (t_wq0_2 Int) (t_wq0_3 Int) (t_wq0_4 Int) (t_wq0_5 Int) (t_wq0_6 Int) (t_wq0_7 Int) (t_wq0_8 Int) (t_wq0_9 Int) (t_wq0_10 Int) (t_wq0_11 Int) (t_wq0_12 Int) (t_wq0_13 Int) (t_wq0_14 Int) (t_wq0_15 Int) (t_wq0_16 Int) (t_wq0_17 Int) (t_wq0_18 Int) (t_wq0_19 Int) (t_wq0_20 Int) (t_wq0_21 Int) (t_wq0_22 Int) (t_wq0_23 Int) (t_wq0_24 Int) (t_wq0_25 Int) (t_wq0_26 Int) (t_wq0_27 Int) (t_wq0_28 Int) (t_wq0_29 Int) (t_wq0_30 Int) (t_wq0_31 Int) (t_wq0_32 Int) (t_wq0_33 Int) (t_wq0_34 Int) (t_wq0_35 Int) (t_wq0_36 Int) (t_wq0_37 Int) (t_wq0_38 Int) (t_wq0_39 Int) (t_wq0_40 Int) (t_wq0_41 Int) (t_wq0_42 Int) (t_wq0_43 Int) (t_wq0_44 Int) (t_wq0_45 Int) (t_wq0_46 Int) (t_wq0_47 Int) (t_wq0_48 Int) (t_wq0_49 Int) (t_awq0_0_0 Int) (t_awq0_0_1 Int) (t_awq0_0_2 Int) (t_awq0_1_0 Int) (t_awq0_1_1 Int) (t_awq0_1_2 Int) (t_awq0_2_0 Int) (t_awq0_2_1 Int) (t_awq0_2_2 Int) (t_awq0_3_0 Int) (t_awq0_3_1 Int) (t_awq0_3_2 Int) (t_awq0_4_0 Int) (t_awq0_4_1 Int) (t_awq0_4_2 Int) (t_awq0_5_0 Int) (t_awq0_5_1 Int) (t_awq0_5_2 Int) (t_awq0_6_0 Int) (t_awq0_6_1 Int) (t_awq0_6_2 Int) (t_awq0_7_0 Int) (t_awq0_7_1 Int) (t_awq0_7_2 Int) (t_awq0_8_0 Int) (t_awq0_8_1 Int) (t_awq0_8_2 Int) (t_awq0_9_0 Int) (t_awq0_9_1 Int) (t_awq0_9_2 Int) (t_awq0_10_0 Int) (t_awq0_10_1 Int) (t_awq0_10_2 Int) (t_awq0_11_0 Int) (t_awq0_11_1 Int) (t_awq0_11_2 Int) (t_awq0_12_0 Int) (t_awq0_12_1 Int) (t_awq0_12_2 Int) (t_awq0_13_0 Int) (t_awq0_13_1 Int) (t_awq0_13_2 Int) (t_awq0_14_0 Int) (t_awq0_14_1 Int) (t_awq0_14_2 Int) (t_awq0_15_0 Int) (t_awq0_15_1 Int) (t_awq0_15_2 Int) (t_awq0_16_0 Int) (t_awq0_16_1 Int) (t_awq0_16_2 Int) (t_awq0_17_0 Int) (t_awq0_17_1 Int) (t_awq0_17_2 Int) (t_awq0_18_0 Int) (t_awq0_18_1 Int) (t_awq0_18_2 Int) (t_awq0_19_0 Int) (t_awq0_19_1 Int) (t_awq0_19_2 Int) (t_awq0_20_0 Int) (t_awq0_20_1 Int) (t_awq0_20_2 Int) (t_awq0_21_0 Int) (t_awq0_21_1 Int) (t_awq0_21_2 Int) (t_awq0_22_0 Int) (t_awq0_22_1 Int) (t_awq0_22_2 Int) (t_awq0_23_0 Int) (t_awq0_23_1 Int) (t_awq0_23_2 Int) (t_awq0_24_0 Int) (t_awq0_24_1 Int) (t_awq0_24_2 Int) (t_awq0_25_0 Int) (t_awq0_25_1 Int) (t_awq0_25_2 Int) (t_awq0_26_0 Int) (t_awq0_26_1 Int) (t_awq0_26_2 Int) (t_awq0_27_0 Int) (t_awq0_27_1 Int) (t_awq0_27_2 Int) (t_awq0_28_0 Int) (t_awq0_28_1 Int) (t_awq0_28_2 Int) (t_awq0_29_0 Int) (t_awq0_29_1 Int) (t_awq0_29_2 Int) (t_awq0_30_0 Int) (t_awq0_30_1 Int) (t_awq0_30_2 Int) (t_awq0_31_0 Int) (t_awq0_31_1 Int) (t_awq0_31_2 Int) (t_awq0_32_0 Int) (t_awq0_32_1 Int) (t_awq0_32_2 Int) (t_awq0_33_0 Int) (t_awq0_33_1 Int) (t_awq0_33_2 Int) (t_awq0_34_0 Int) (t_awq0_34_1 Int) (t_awq0_34_2 Int) (t_awq0_35_0 Int) (t_awq0_35_1 Int) (t_awq0_35_2 Int) (t_awq0_36_0 Int) (t_awq0_36_1 Int) (t_awq0_36_2 Int) (t_awq0_37_0 Int) (t_awq0_37_1 Int) (t_awq0_37_2 Int) (t_awq0_38_0 Int) (t_awq0_38_1 Int) (t_awq0_38_2 Int) (t_awq0_39_0 Int) (t_awq0_39_1 Int) (t_awq0_39_2 Int) (t_awq0_40_0 Int) (t_awq0_40_1 Int) (t_awq0_40_2 Int) (t_awq0_41_0 Int) (t_awq0_41_1 Int) (t_awq0_41_2 Int) (t_awq0_42_0 Int) (t_awq0_42_1 Int) (t_awq0_42_2 Int) (t_awq0_43_0 Int) (t_awq0_43_1 Int) (t_awq0_43_2 Int) (t_awq0_44_0 Int) (t_awq0_44_1 Int) (t_awq0_44_2 Int) (t_awq0_45_0 Int) (t_awq0_45_1 Int) (t_awq0_45_2 Int) (t_awq0_46_0 Int) (t_awq0_46_1 Int) (t_awq0_46_2 Int) (t_awq0_47_0 Int) (t_awq0_47_1 Int) (t_awq0_47_2 Int) (t_awq0_48_0 Int) (t_awq0_48_1 Int) (t_awq0_48_2 Int) (t_awq0_49_0 Int) (t_awq0_49_1 Int) (t_awq0_49_2 Int) (deadlineq0 Int) (t_deadlineq0_0 Int) (t_deadlineq0_1 Int) (t_deadlineq0_2 Int) (t_deadlineq0_3 Int) (t_deadlineq0_4 Int) (t_deadlineq0_5 Int) (t_deadlineq0_6 Int) (t_deadlineq0_7 Int) (t_deadlineq0_8 Int) (t_deadlineq0_9 Int) (t_deadlineq0_10 Int) (t_deadlineq0_11 Int) (t_deadlineq0_12 Int) (t_deadlineq0_13 Int) (t_deadlineq0_14 Int) (t_deadlineq0_15 Int) (t_deadlineq0_16 Int) (t_deadlineq0_17 Int) (t_deadlineq0_18 Int) (t_deadlineq0_19 Int) (t_deadlineq0_20 Int) (t_deadlineq0_21 Int) (t_deadlineq0_22 Int) (t_deadlineq0_23 Int) (t_deadlineq0_24 Int) (t_deadlineq0_25 Int) (t_deadlineq0_26 Int) (t_deadlineq0_27 Int) (t_deadlineq0_28 Int) (t_deadlineq0_29 Int) (t_deadlineq0_30 Int) (t_deadlineq0_31 Int) (t_deadlineq0_32 Int) (t_deadlineq0_33 Int) (t_deadlineq0_34 Int) (t_deadlineq0_35 Int) (t_deadlineq0_36 Int) (t_deadlineq0_37 Int) (t_deadlineq0_38 Int) (t_deadlineq0_39 Int) (t_deadlineq0_40 Int) (t_deadlineq0_41 Int) (t_deadlineq0_42 Int) (t_deadlineq0_43 Int) (t_deadlineq0_44 Int) (t_deadlineq0_45 Int) (t_deadlineq0_46 Int) (t_deadlineq0_47 Int) (t_deadlineq0_48 Int) (t_deadlineq0_49 Int) (min_bidq0 Int) (t_min_bidq0_0 Int) (t_min_bidq0_1 Int) (t_min_bidq0_2 Int) (t_min_bidq0_3 Int) (t_min_bidq0_4 Int) (t_min_bidq0_5 Int) (t_min_bidq0_6 Int) (t_min_bidq0_7 Int) (t_min_bidq0_8 Int) (t_min_bidq0_9 Int) (t_min_bidq0_10 Int) (t_min_bidq0_11 Int) (t_min_bidq0_12 Int) (t_min_bidq0_13 Int) (t_min_bidq0_14 Int) (t_min_bidq0_15 Int) (t_min_bidq0_16 Int) (t_min_bidq0_17 Int) (t_min_bidq0_18 Int) (t_min_bidq0_19 Int) (t_min_bidq0_20 Int) (t_min_bidq0_21 Int) (t_min_bidq0_22 Int) (t_min_bidq0_23 Int) (t_min_bidq0_24 Int) (t_min_bidq0_25 Int) (t_min_bidq0_26 Int) (t_min_bidq0_27 Int) (t_min_bidq0_28 Int) (t_min_bidq0_29 Int) (t_min_bidq0_30 Int) (t_min_bidq0_31 Int) (t_min_bidq0_32 Int) (t_min_bidq0_33 Int) (t_min_bidq0_34 Int) (t_min_bidq0_35 Int) (t_min_bidq0_36 Int) (t_min_bidq0_37 Int) (t_min_bidq0_38 Int) (t_min_bidq0_39 Int) (t_min_bidq0_40 Int) (t_min_bidq0_41 Int) (t_min_bidq0_42 Int) (t_min_bidq0_43 Int) (t_min_bidq0_44 Int) (t_min_bidq0_45 Int) (t_min_bidq0_46 Int) (t_min_bidq0_47 Int) (t_min_bidq0_48 Int) (t_min_bidq0_49 Int) (sellerq0 Int) (t_sellerq0_0 Int) (t_sellerq0_1 Int) (t_sellerq0_2 Int) (t_sellerq0_3 Int) (t_sellerq0_4 Int) (t_sellerq0_5 Int) (t_sellerq0_6 Int) (t_sellerq0_7 Int) (t_sellerq0_8 Int) (t_sellerq0_9 Int) (t_sellerq0_10 Int) (t_sellerq0_11 Int) (t_sellerq0_12 Int) (t_sellerq0_13 Int) (t_sellerq0_14 Int) (t_sellerq0_15 Int) (t_sellerq0_16 Int) (t_sellerq0_17 Int) (t_sellerq0_18 Int) (t_sellerq0_19 Int) (t_sellerq0_20 Int) (t_sellerq0_21 Int) (t_sellerq0_22 Int) (t_sellerq0_23 Int) (t_sellerq0_24 Int) (t_sellerq0_25 Int) (t_sellerq0_26 Int) (t_sellerq0_27 Int) (t_sellerq0_28 Int) (t_sellerq0_29 Int) (t_sellerq0_30 Int) (t_sellerq0_31 Int) (t_sellerq0_32 Int) (t_sellerq0_33 Int) (t_sellerq0_34 Int) (t_sellerq0_35 Int) (t_sellerq0_36 Int) (t_sellerq0_37 Int) (t_sellerq0_38 Int) (t_sellerq0_39 Int) (t_sellerq0_40 Int) (t_sellerq0_41 Int) (t_sellerq0_42 Int) (t_sellerq0_43 Int) (t_sellerq0_44 Int) (t_sellerq0_45 Int) (t_sellerq0_46 Int) (t_sellerq0_47 Int) (t_sellerq0_48 Int) (t_sellerq0_49 Int) (winnerq0 Int) (t_winnerq0_0 Int) (t_winnerq0_1 Int) (t_winnerq0_2 Int) (t_winnerq0_3 Int) (t_winnerq0_4 Int) (t_winnerq0_5 Int) (t_winnerq0_6 Int) (t_winnerq0_7 Int) (t_winnerq0_8 Int) (t_winnerq0_9 Int) (t_winnerq0_10 Int) (t_winnerq0_11 Int) (t_winnerq0_12 Int) (t_winnerq0_13 Int) (t_winnerq0_14 Int) (t_winnerq0_15 Int) (t_winnerq0_16 Int) (t_winnerq0_17 Int) (t_winnerq0_18 Int) (t_winnerq0_19 Int) (t_winnerq0_20 Int) (t_winnerq0_21 Int) (t_winnerq0_22 Int) (t_winnerq0_23 Int) (t_winnerq0_24 Int) (t_winnerq0_25 Int) (t_winnerq0_26 Int) (t_winnerq0_27 Int) (t_winnerq0_28 Int) (t_winnerq0_29 Int) (t_winnerq0_30 Int) (t_winnerq0_31 Int) (t_winnerq0_32 Int) (t_winnerq0_33 Int) (t_winnerq0_34 Int) (t_winnerq0_35 Int) (t_winnerq0_36 Int) (t_winnerq0_37 Int) (t_winnerq0_38 Int) (t_winnerq0_39 Int) (t_winnerq0_40 Int) (t_winnerq0_41 Int) (t_winnerq0_42 Int) (t_winnerq0_43 Int) (t_winnerq0_44 Int) (t_winnerq0_45 Int) (t_winnerq0_46 Int) (t_winnerq0_47 Int) (t_winnerq0_48 Int) (t_winnerq0_49 Int) (current_bidq0 Int) (t_current_bidq0_0 Int) (t_current_bidq0_1 Int) (t_current_bidq0_2 Int) (t_current_bidq0_3 Int) (t_current_bidq0_4 Int) (t_current_bidq0_5 Int) (t_current_bidq0_6 Int) (t_current_bidq0_7 Int) (t_current_bidq0_8 Int) (t_current_bidq0_9 Int) (t_current_bidq0_10 Int) (t_current_bidq0_11 Int) (t_current_bidq0_12 Int) (t_current_bidq0_13 Int) (t_current_bidq0_14 Int) (t_current_bidq0_15 Int) (t_current_bidq0_16 Int) (t_current_bidq0_17 Int) (t_current_bidq0_18 Int) (t_current_bidq0_19 Int) (t_current_bidq0_20 Int) (t_current_bidq0_21 Int) (t_current_bidq0_22 Int) (t_current_bidq0_23 Int) (t_current_bidq0_24 Int) (t_current_bidq0_25 Int) (t_current_bidq0_26 Int) (t_current_bidq0_27 Int) (t_current_bidq0_28 Int) (t_current_bidq0_29 Int) (t_current_bidq0_30 Int) (t_current_bidq0_31 Int) (t_current_bidq0_32 Int) (t_current_bidq0_33 Int) (t_current_bidq0_34 Int) (t_current_bidq0_35 Int) (t_current_bidq0_36 Int) (t_current_bidq0_37 Int) (t_current_bidq0_38 Int) (t_current_bidq0_39 Int) (t_current_bidq0_40 Int) (t_current_bidq0_41 Int) (t_current_bidq0_42 Int) (t_current_bidq0_43 Int) (t_current_bidq0_44 Int) (t_current_bidq0_45 Int) (t_current_bidq0_46 Int) (t_current_bidq0_47 Int) (t_current_bidq0_48 Int) (t_current_bidq0_49 Int) (closedq0 Bool) (t_closedq0_0 Bool) (t_closedq0_1 Bool) (t_closedq0_2 Bool) (t_closedq0_3 Bool) (t_closedq0_4 Bool) (t_closedq0_5 Bool) (t_closedq0_6 Bool) (t_closedq0_7 Bool) (t_closedq0_8 Bool) (t_closedq0_9 Bool) (t_closedq0_10 Bool) (t_closedq0_11 Bool) (t_closedq0_12 Bool) (t_closedq0_13 Bool) (t_closedq0_14 Bool) (t_closedq0_15 Bool) (t_closedq0_16 Bool) (t_closedq0_17 Bool) (t_closedq0_18 Bool) (t_closedq0_19 Bool) (t_closedq0_20 Bool) (t_closedq0_21 Bool) (t_closedq0_22 Bool) (t_closedq0_23 Bool) (t_closedq0_24 Bool) (t_closedq0_25 Bool) (t_closedq0_26 Bool) (t_closedq0_27 Bool) (t_closedq0_28 Bool) (t_closedq0_29 Bool) (t_closedq0_30 Bool) (t_closedq0_31 Bool) (t_closedq0_32 Bool) (t_closedq0_33 Bool) (t_closedq0_34 Bool) (t_closedq0_35 Bool) (t_closedq0_36 Bool) (t_closedq0_37 Bool) (t_closedq0_38 Bool) (t_closedq0_39 Bool) (t_closedq0_40 Bool) (t_closedq0_41 Bool) (t_closedq0_42 Bool) (t_closedq0_43 Bool) (t_closedq0_44 Bool) (t_closedq0_45 Bool) (t_closedq0_46 Bool) (t_closedq0_47 Bool) (t_closedq0_48 Bool) (t_closedq0_49 Bool) )(let (($x2284 (and (or (and (distinct seller_1 0) true) (>= awq0_0 (+ aw_1_0 current_bid_1))) (or (and (distinct seller_1 1) true) (>= awq0_1 (+ aw_1_1 current_bid_1))) (or (and (distinct seller_1 2) true) (>= awq0_2 (+ aw_1_2 current_bid_1))))))
 (let (($x2288 (= current_bid_1 current_bidq0)))
 (let (($x2289 (= winner_1 winnerq0)))
 (let (($x2290 (= seller_1 sellerq0)))
 (let (($x2291 (= min_bid_1 min_bidq0)))
 (let (($x2292 (= deadline_1 deadlineq0)))
 (let (($x2296 (and (= awq0_0 t_awq0_0_0) (= awq0_1 t_awq0_0_1) (= awq0_2 t_awq0_0_2))))
 (let (($x2297 (= wq0 t_wq0_0)))
 (let (($x2298 (and $x2297 $x2296 $x2292 $x2291 $x2290 $x2289 $x2288 (= t_closedq0_0 closedq0))))
 (let (($x2299 (= t_awq0_0_2 aw_1_2)))
 (let (($x1725 (= seller_1 2)))
 (let (($x2302 (= t_awq0_0_1 aw_1_1)))
 (let (($x1721 (= seller_1 1)))
 (let (($x2305 (= t_awq0_0_0 aw_1_0)))
 (let (($x1635 (= seller_1 0)))
 (let (($x2308 (and (ite $x1635 (= t_awq0_0_0 (+ aw_1_0 w_1)) $x2305) (ite $x1721 (= t_awq0_0_1 (+ aw_1_1 w_1)) $x2302) (ite $x1725 (= t_awq0_0_2 (+ aw_1_2 w_1)) $x2299))))
 (let (($x2311 (and (and (= t_wq0_0 (- w_1 w_1)) $x2308) true $x2292 $x2291 $x2290 $x2298)))
 (let (($x2312 (= closed_1 closedq0)))
 (let (($x2316 (and (= awq0_0 aw_1_0) (= awq0_1 aw_1_1) (= awq0_2 aw_1_2))))
 (let (($x2318 (and (= wq0 w_1) $x2316 $x2292 $x2291 $x2290 $x2289 $x2288 $x2312)))
 (let (($x2322 (and (and (= t_closedq0_0 true) (ite (not (>= w_1 0)) $x2318 $x2311)) true $x2292 $x2291 $x2290 $x2298)))
 (let (($x2325 (and (ite (not (> block_num_1 deadline_1)) $x2318 (and $x2322)) true $x2292 $x2291 $x2290 $x2298)))
 (let (($x2328 (and (ite (not (= seller_1 seller_1)) $x2318 (and $x2325)) true $x2292 $x2291 $x2290 $x2298)))
 (let (($x1620 (not closed_1)))
 (let (($x1655 (not $x1620)))
 (let (($x2338 (and (= wq0 t_wq0_1) $x2296 $x2292 $x2291 $x2290 (= t_winnerq0_0 winnerq0) (= t_current_bidq0_0 current_bidq0) $x2312)))
 (let (($x2342 (and (and (= t_winnerq0_0 seller_1) (= t_current_bidq0_0 xn_q0)) true $x2292 $x2291 $x2290 $x2338)))
 (let (($x2349 (and (ite (= winner_1 0) (= t_awq0_0_0 (+ aw_1_0 current_bid_1)) $x2305) (ite (= winner_1 1) (= t_awq0_0_1 (+ aw_1_1 current_bid_1)) $x2302) (ite (= winner_1 2) (= t_awq0_0_2 (+ aw_1_2 current_bid_1)) $x2299))))
 (let (($x2354 (ite (not (>= current_bid_1 0)) $x2318 (and (and (= t_wq0_1 (- t_wq0_0 current_bid_1)) $x2349) $x2342))))
 (let (($x2359 (ite (not (> xn_q0 current_bid_1)) $x2318 (and (and $x2354 true $x2292 $x2291 $x2290 $x2338)))))
 (let (($x2364 (ite (not (>= xn_q0 min_bid_1)) $x2318 (and (and $x2359 true $x2292 $x2291 $x2290 $x2338)))))
 (let (($x2370 (= t_wq0_0 (+ w_1 xn_q0))))
 (let (($x2371 (and $x2370 (and (ite $x1655 $x2318 (and (and $x2364 true $x2292 $x2291 $x2290 $x2338)))))))
 (let (($x2373 (ite (= f_q0 bid_func) $x2371 (ite (not (= xn_q0 0)) $x2318 (and (ite $x1655 $x2318 (and $x2328)))))))
 (let (($x1653 (<= seller_1 2)))
 (let (($x1652 (>= seller_1 1)))
 (let (($x2379 (ite (= f_q0 coinbase) (and $x1635 (and $x2370 (and $x2297 $x2316 $x2292 $x2291 $x2290 $x2289 $x2288 $x2312))) (and $x1652 $x1653 $x2373))))
 (let (($x2387 (and (and (>= xn_q0 0) (>= wq0 0)) (and (>= aw_1_0 0) (>= aw_1_1 0) (>= aw_1_2 0)) (>= block_num_1 block_num_1) (>= sellerq0 0) (<= sellerq0 2) (>= winnerq0 0) (<= winnerq0 2) $x2379)))
 (or (not $x2387) (not (and $x2284 (>= current_bid_1 min_bid_1)))))))))))))))))))))))))))))))))))))))))))
 ))
 (let (($x1620 (not closed_1)))
 (let (($x1618 (> block_num_1 deadline_1)))
 (let (($x1621 (and (and (and (and (distinct winner_1 0) true) (> w_1 0)) $x1618) $x1620)))
 (and (and (>= xa_q 1) (<= xa_q 2)) $x1621 $x2277))))))
 ))
 (and $x1633)))
(check-sat)

(get-model)